p cnf 91 377
1 7 42 45 46 60 0
-3 -16 -19 -23 67 91 0
10 21 22 69 70 -72 0
-3 -16 -19 -23 -89 91 0
3 19 23 -33 56 0
4 19 -50 -51 68 0
-4 52 -61 82 -84 0
-4 52 -63 82 -84 0
-5 -36 -65 74 82 0
7 8 9 46 64 0
7 9 -47 -48 64 0
-8 42 45 46 -60 0
10 20 21 22 -72 0
10 -21 -69 -72 -77 0
11 -30 -31 58 -80 0
12 57 58 -73 78 0
-17 22 -44 -72 77 0
3 24 -32 -35 56 0
12 57 58 -73 -78 0
-17 -18 -19 -23 -60 0
1 -42 45 83 0
-2 -5 -6 61 0
-3 -50 51 -68 0
-3 -51 67 91 0
4 -49 -51 -91 0
-4 -63 -78 84 0
-5 -63 78 82 0
-8 -42 60 -83 0
10 11 -27 -34 0
11 26 -27 -31 0
11 57 58 -76 0
-11 -14 -15 76 0
-12 -19 -78 -79 0
-13 -67 86 89 0
-14 -31 58 78 0
15 -29 30 57 0
-18 -19 -41 -48 0
19 23 39 41 0
19 38 54 64 0
-19 -40 -43 87 0
20 -38 53 71 0
20 -38 -54 71 0
22 41 53 71 0
22 -69 -72 88 0
-22 41 53 70 0
23 25 -33 74 0
23 27 32 34 0
25 29 30 33 0
-39 -54 -70 71 0
40 42 -43 -87 0
1 46 60 -87 0
2 24 -32 -61 0
-3 67 -68 91 0
-4 -61 82 84 0
-7 -8 -42 -60 0
8 9 46 64 0
9 45 -48 55 0
11 -27 34 57 0
13 -14 57 -78 0
19 23 -65 75 0
19 23 -75 -80 0
-19 -23 -27 -28 0
-21 54 70 -72 0
-22 41 53 -70 0
-36 37 -63 82 0
58 -73 78 79 0
-66 -67 86 89 0
1 10 -27 0
1 -39 70 0
1 -83 -88 0
-1 -2 37 0
-1 8 -10 0
-1 8 -88 0
-1 -24 28 0
-1 -56 -59 0
2 33 56 0
-2 -65 74 0
3 16 50 0
3 18 39 0
3 28 -56 0
-3 16 50 0
-3 32 61 0
4 7 -50 0
4 10 -56 0
4 -32 61 0
4 78 84 0
4 -78 -84 0
5 78 84 0
5 -78 -84 0
-5 62 -78 0
6 35 -36 0
-6 -35 36 0
-7 -8 -46 0
-8 -9 -46 0
-8 -19 -70 0
-8 45 87 0
-8 -46 -64 0
-8 -72 88 0
9 40 43 0
-9 -40 43 0
10 11 12 0
10 12 -28 0
10 -70 88 0
-10 -26 -31 0
11 12 -19 0
-11 -15 29 0
-11 -58 80 0
-11 76 -80 0
12 26 -28 0
13 -19 79 0
13 -31 -73 0
13 49 -68 0
13 49 85 0
13 57 -73 0
13 -68 91 0
-13 68 -85 0
14 30 73 0
15 31 57 0
-16 68 -89 0
17 39 40 0
17 44 77 0
18 42 69 0
-18 -47 54 0
19 59 -62 0
-19 -24 -33 0
-19 25 -56 0
-19 -32 -33 0
-19 -44 54 0
-19 51 -85 0
-19 66 -89 0
-20 70 77 0
-21 -38 88 0
23 -30 -36 0
23 51 -91 0
23 -74 -75 0
-23 30 -56 0
-23 -32 -34 0
-23 -40 -48 0
-23 -51 -81 0
-23 -76 -81 0
-24 -26 -59 0
-24 35 -59 0
-25 -26 -74 0
-25 -36 -65 0
-29 73 -80 0
32 52 -61 0
-35 52 -59 0
-35 -52 -74 0
36 -37 63 0
-36 61 62 0
38 54 72 0
-38 -46 -64 0
39 60 69 0
-39 -55 -60 0
40 46 -87 0
-41 -53 70 0
-44 -72 -77 0
-45 48 55 0
-46 47 -64 0
-46 -47 55 0
49 67 -68 0
49 67 85 0
49 68 -86 0
49 85 -86 0
-49 -86 90 0
50 -66 89 0
-50 66 90 0
53 -72 -77 0
65 74 -82 0
66 86 -90 0
-66 86 -90 0
-67 -86 90 0
78 79 -84 0
52 -63 78 -84 0
1 2 0
1 24 0
1 27 0
1 -36 0
1 -52 0
1 -83 0
1 88 0
-1 -25 0
-1 -30 0
-1 -49 0
-1 -59 0
-1 62 0
-1 70 0
2 5 0
2 6 0
2 59 0
2 65 0
-2 -5 0
-2 -6 0
-2 35 0
3 -26 0
3 32 0
3 51 0
3 59 0
3 66 0
3 -67 0
3 68 0
3 -68 0
3 87 0
-3 7 0
-3 35 0
-3 -82 0
-3 -86 0
-3 89 0
-3 -89 0
4 24 0
4 -52 0
4 -61 0
4 63 0
4 -68 0
4 -82 0
4 89 0
4 -91 0
-4 -33 0
-4 61 0
-4 -66 0
5 -52 0
5 -62 0
5 63 0
5 -82 0
6 -62 0
6 82 0
6 -82 0
-6 -24 0
-6 37 0
-6 -74 0
7 8 0
7 -47 0
7 -55 0
-7 -45 0
-7 87 0
8 -18 0
8 -45 0
8 -46 0
8 -70 0
8 83 0
-8 9 0
-8 46 0
-8 -64 0
-8 -83 0
9 -43 0
9 -47 0
-9 -45 0
10 22 0
10 -28 0
10 -34 0
10 -57 0
10 -70 0
10 -77 0
10 90 0
-10 -11 0
-10 -12 0
-10 24 0
-10 26 0
-10 28 0
-10 -34 0
-10 36 0
-10 57 0
-10 66 0
-10 -83 0
11 14 0
11 15 0
11 -19 0
11 26 0
11 28 0
-11 31 0
-11 -46 0
-11 -57 0
12 -19 0
12 26 0
12 -79 0
-12 31 0
-12 33 0
-12 -57 0
-12 -58 0
-12 73 0
-12 79 0
13 -31 0
13 -79 0
13 84 0
13 85 0
13 89 0
13 91 0
-13 28 0
-13 -49 0
-13 -80 0
14 31 0
14 -58 0
14 -78 0
14 79 0
14 -79 0
-14 49 0
15 25 0
15 -57 0
-15 -30 0
-15 58 0
-15 76 0
16 -68 0
-16 40 0
-16 -49 0
-16 -50 0
-16 67 0
17 18 0
17 19 0
17 -19 0
17 -71 0
-17 -39 0
-17 40 0
-17 43 0
-17 -47 0
-17 -77 0
18 47 0
18 54 0
18 64 0
18 -74 0
18 81 0
-18 -43 0
-18 47 0
-18 -72 0
-18 81 0
19 26 0
19 28 0
19 34 0
19 42 0
19 60 0
19 -68 0
19 -76 0
19 -91 0
-19 20 0
-19 -38 0
-19 -42 0
-19 -44 0
-19 -53 0
-19 -58 0
-19 -59 0
-19 65 0
-19 -69 0
-19 80 0
-19 81 0
-19 -84 0
-19 89 0
20 53 0
20 -54 0
-20 69 0
-20 72 0
21 -77 0
-21 83 0
-21 -88 0
22 -41 0
22 46 0
22 54 0
22 -55 0
-22 25 0
-22 -41 0
-22 -70 0
-22 -71 0
-22 -88 0
23 40 0
23 -50 0
23 -51 0
23 59 0
23 -68 0
23 69 0
23 -71 0
23 77 0
23 -85 0
-23 -24 0
-23 36 0
-23 -43 0
-23 -50 0
-23 -53 0
-23 -55 0
-23 -57 0
